-31 -70
189 65
-83 -80
-170 18
15 -188
72 -195
-62 -119
13 -180
197 217
35 172
-36 178
-104 41
98 -233
118 173
30 -82
246 49
171 67
118 -30
178 81
196 -237
194 66
-146 47
-86 42
144 -60
-19 161
-235 -24
159 123
50 34
178 -145
199 -239
